unsat
(:max-memory         18.62
 :memory             18.42
 :nlsat-arith-var    3
 :nlsat-atoms        15
 :nlsat-bool-var     2
 :nlsat-clauses      11
 :nlsat-conflicts    5
 :nlsat-decisions    1
 :nlsat-propagations 17
 :nlsat-stages       5
 :num-allocs         93567
 :rlimit-count       6411
 :time               0.01
 :total-time         0.02)
